files/upTests/_functions/funcSetNested/0003.eprime.solution
language ESSENCE' 1.0
$ minion Nodes: 13
$ minion TotalTime: 0.000586
$ Savile Row TotalTime: 0.221
letting f_Matrix1D_SetExplicit_SetExplicit be [[[5, 6, 7;int(1..3)], 
[5, 6, 8;int(1..3)];int(1..2)], 
[[5, 6, 7;int(1..3)], 
[5, 6, 8;int(1..3)];int(1..2)], 
[[5, 6, 7;int(1..3)], 
[5, 6, 8;int(1..3)];int(1..2)];int(2..4)]
